NAME 
ROWS
 N  OBJ
 L  R0      
 E  R1      
 E  R2      
 E  R3      
 E  R4      
 E  R5      
 E  R6      
 E  R7      
 E  R8      
 E  R9      
 E  R10     
 E  R11     
 E  R12     
 E  R13     
 E  R14     
 E  R15     
COLUMNS
    MARKER    'MARKER'                 'INTORG'
    I0(10)    OBJ       5
    I0(10)    R0        53
    I0(10)    R1        2
    I0(10)    R2        15
    I0(10)    R3        5
    I0(10)    R4        13
    I0(10)    R5        15
    I0(10)    R6        3
    I0(10)    R8        19
    I0(10)    R9        6
    I0(10)    R15       1
    I1(8)     R0        -153
    I1(8)     R1        4
    I1(8)     R4        19
    I1(8)     R5        17
    I1(8)     R6        10
    I1(8)     R8        3
    I1(8)     R9        15
    I1(8)     R15       1
    I2(9)     OBJ       112
    I2(9)     R0        107
    I2(9)     R1        14
    I2(9)     R2        10
    I2(9)     R3        1
    I2(9)     R4        18
    I2(9)     R6        18
    I2(9)     R8        11
    I2(9)     R9        16
    I2(9)     R15       1
    I3(9)     OBJ       -151
    I3(9)     R0        24
    I3(9)     R1        9
    I3(9)     R3        13
    I3(9)     R4        12
    I3(9)     R5        16
    I3(9)     R6        12
    I3(9)     R7        2
    I3(9)     R8        4
    I3(9)     R15       1
    I4(8)     OBJ       -83
    I4(8)     R0        -177
    I4(8)     R1        15
    I4(8)     R3        5
    I4(8)     R4        4
    I4(8)     R5        16
    I4(8)     R8        16
    I4(8)     R9        4
    I4(8)     R15       1
    I5(7)     OBJ       -135
    I5(7)     R0        -115
    I5(7)     R2        2
    I5(7)     R3        17
    I5(7)     R5        7
    I5(7)     R8        4
    I5(7)     R9        7
    I5(7)     R15       1
    I6(10)    OBJ       -175
    I6(10)    R0        -184
    I6(10)    R1        17
    I6(10)    R2        4
    I6(10)    R4        6
    I6(10)    R5        16
    I6(10)    R6        13
    I6(10)    R7        9
    I6(10)    R8        9
    I6(10)    R9        10
    I6(10)    R15       1
    I7(10)    OBJ       137
    I7(10)    R0        87
    I7(10)    R1        14
    I7(10)    R2        1
    I7(10)    R3        13
    I7(10)    R5        4
    I7(10)    R6        16
    I7(10)    R7        12
    I7(10)    R8        10
    I7(10)    R9        16
    I7(10)    R15       1
    I8(10)    OBJ       -55
    I8(10)    R0        22
    I8(10)    R1        16
    I8(10)    R2        12
    I8(10)    R3        16
    I8(10)    R4        14
    I8(10)    R5        15
    I8(10)    R6        14
    I8(10)    R7        8
    I8(10)    R8        8
    I8(10)    R15       1
    MARKER    'MARKER'                 'INTEND'
    C9(12)    OBJ       -2
    C9(12)    R0        6
    C9(12)    R1        18
    C9(12)    R2        11
    C9(12)    R3        10
    C9(12)    R5        4
    C9(12)    R7        11
    C9(12)    R9        13
    C9(12)    R10       8
    C9(12)    R11       3
    C9(12)    R12       11
    C9(12)    R13       5
    C9(12)    R14       13
    C10(13)   OBJ       -2
    C10(13)   R0        8
    C10(13)   R1        12
    C10(13)   R2        2
    C10(13)   R3        18
    C10(13)   R4        8
    C10(13)   R5        14
    C10(13)   R7        1
    C10(13)   R9        7
    C10(13)   R10       17
    C10(13)   R11       6
    C10(13)   R12       8
    C10(13)   R13       10
    C10(13)   R14       4
    C11(12)   OBJ       -9
    C11(12)   R0        8
    C11(12)   R1        17
    C11(12)   R2        8
    C11(12)   R3        10
    C11(12)   R4        4
    C11(12)   R5        18
    C11(12)   R6        16
    C11(12)   R8        17
    C11(12)   R9        2
    C11(12)   R10       11
    C11(12)   R11       7
    C11(12)   R14       17
    C12(9)    R0        3
    C12(9)    R1        12
    C12(9)    R4        16
    C12(9)    R5        17
    C12(9)    R7        15
    C12(9)    R8        15
    C12(9)    R9        7
    C12(9)    R11       14
    C12(9)    R13       3
    C13(12)   OBJ       -7
    C13(12)   R0        -9
    C13(12)   R1        12
    C13(12)   R2        16
    C13(12)   R5        2
    C13(12)   R6        19
    C13(12)   R7        18
    C13(12)   R8        10
    C13(12)   R9        -1
    C13(12)   R11       15
    C13(12)   R12       18
    C13(12)   R13       19
    C13(12)   R14       4
    C14(11)   OBJ       2
    C14(11)   R0        1
    C14(11)   R2        11
    C14(11)   R3        16
    C14(11)   R4        14
    C14(11)   R6        6
    C14(11)   R7        11
    C14(11)   R8        5
    C14(11)   R9        -1
    C14(11)   R10       12
    C14(11)   R12       17
    C14(11)   R14       14
    C15(1)    R1        1
    C16(1)    R2        1
    C17(1)    R3        1
    C18(1)    R4        1
    C19(1)    R5        1
    C20(1)    R6        1
    C21(1)    R7        1
    C22(1)    R8        1
    C23(1)    R9        1
    C24(1)    R10       1
    C25(1)    R11       1
    C26(1)    R12       1
    C27(1)    R13       1
    C28(1)    R14       1
    C29(1)    R15       1
RHS
    RHS1      R0        -349.249999999999
    RHS1      R1        50
    RHS1      R2        60
    RHS1      R3        77
    RHS1      R4        69
    RHS1      R5        94
    RHS1      R6        68
    RHS1      R7        96
    RHS1      R8        77
    RHS1      R9        91
    RHS1      R10       92
    RHS1      R11       87
    RHS1      R12       55
    RHS1      R13       84
    RHS1      R14       95
    RHS1      R15       3
BOUNDS
 UP BND1      I0(10)    2
 UP BND1      I1(8)     2
 UP BND1      I2(9)     2
 UP BND1      I3(9)     2
 UP BND1      I4(8)     2
 UP BND1      I5(7)     2
 UP BND1      I6(10)    2
 UP BND1      I7(10)    2
 UP BND1      I8(10)    2
ENDATA
